certificates/rado_a7_c283_N40.cnf
c Rad2 upper bound instance: x1 + 7*x2 - x3 = 283, interval [1,40]
p cnf 40 234
1 4 40 0
-1 -4 -40 0
2 5 40 0
-2 -5 -40 0
3 6 40 0
-3 -6 -40 0
4 7 40 0
-4 -7 -40 0
5 8 40 0
-5 -8 -40 0
6 9 40 0
-6 -9 -40 0
7 10 40 0
-7 -10 -40 0
1 11 39 0
-1 -11 -39 0
8 11 40 0
-8 -11 -40 0
2 12 39 0
-2 -12 -39 0
9 12 40 0
-9 -12 -40 0
3 13 39 0
-3 -13 -39 0
10 13 40 0
-10 -13 -40 0
4 14 39 0
-4 -14 -39 0
11 14 40 0
-11 -14 -40 0
5 15 39 0
-5 -15 -39 0
12 15 40 0
-12 -15 -40 0
6 16 39 0
-6 -16 -39 0
13 16 40 0
-13 -16 -40 0
7 17 39 0
-7 -17 -39 0
14 17 40 0
-14 -17 -40 0
1 18 38 0
-1 -18 -38 0
8 18 39 0
-8 -18 -39 0
15 18 40 0
-15 -18 -40 0
2 19 38 0
-2 -19 -38 0
9 19 39 0
-9 -19 -39 0
16 19 40 0
-16 -19 -40 0
3 20 38 0
-3 -20 -38 0
10 20 39 0
-10 -20 -39 0
17 20 40 0
-17 -20 -40 0
4 21 38 0
-4 -21 -38 0
11 21 39 0
-11 -21 -39 0
18 21 40 0
-18 -21 -40 0
5 22 38 0
-5 -22 -38 0
12 22 39 0
-12 -22 -39 0
19 22 40 0
-19 -22 -40 0
6 23 38 0
-6 -23 -38 0
13 23 39 0
-13 -23 -39 0
20 23 40 0
-20 -23 -40 0
7 24 38 0
-7 -24 -38 0
14 24 39 0
-14 -24 -39 0
21 24 40 0
-21 -24 -40 0
1 25 37 0
-1 -25 -37 0
8 25 38 0
-8 -25 -38 0
15 25 39 0
-15 -25 -39 0
22 25 40 0
-22 -25 -40 0
2 26 37 0
-2 -26 -37 0
9 26 38 0
-9 -26 -38 0
16 26 39 0
-16 -26 -39 0
23 26 40 0
-23 -26 -40 0
3 27 37 0
-3 -27 -37 0
10 27 38 0
-10 -27 -38 0
17 27 39 0
-17 -27 -39 0
24 27 40 0
-24 -27 -40 0
4 28 37 0
-4 -28 -37 0
11 28 38 0
-11 -28 -38 0
18 28 39 0
-18 -28 -39 0
25 28 40 0
-25 -28 -40 0
5 29 37 0
-5 -29 -37 0
12 29 38 0
-12 -29 -38 0
19 29 39 0
-19 -29 -39 0
26 29 40 0
-26 -29 -40 0
6 30 37 0
-6 -30 -37 0
13 30 38 0
-13 -30 -38 0
20 30 39 0
-20 -30 -39 0
27 30 40 0
-27 -30 -40 0
7 31 37 0
-7 -31 -37 0
14 31 38 0
-14 -31 -38 0
21 31 39 0
-21 -31 -39 0
28 31 40 0
-28 -31 -40 0
1 32 36 0
-1 -32 -36 0
8 32 37 0
-8 -32 -37 0
15 32 38 0
-15 -32 -38 0
22 32 39 0
-22 -32 -39 0
29 32 40 0
-29 -32 -40 0
2 33 36 0
-2 -33 -36 0
9 33 37 0
-9 -33 -37 0
16 33 38 0
-16 -33 -38 0
23 33 39 0
-23 -33 -39 0
30 33 40 0
-30 -33 -40 0
3 34 36 0
-3 -34 -36 0
10 34 37 0
-10 -34 -37 0
17 34 38 0
-17 -34 -38 0
24 34 39 0
-24 -34 -39 0
31 34 40 0
-31 -34 -40 0
4 35 36 0
-4 -35 -36 0
11 35 37 0
-11 -35 -37 0
18 35 38 0
-18 -35 -38 0
25 35 39 0
-25 -35 -39 0
32 35 40 0
-32 -35 -40 0
5 36 0
-5 -36 0
12 36 37 0
-12 -36 -37 0
19 36 38 0
-19 -36 -38 0
26 36 39 0
-26 -36 -39 0
33 36 40 0
-33 -36 -40 0
6 36 37 0
-6 -36 -37 0
13 37 0
-13 -37 0
20 37 38 0
-20 -37 -38 0
27 37 39 0
-27 -37 -39 0
34 37 40 0
-34 -37 -40 0
7 36 38 0
-7 -36 -38 0
14 37 38 0
-14 -37 -38 0
21 38 0
-21 -38 0
28 38 39 0
-28 -38 -39 0
35 38 40 0
-35 -38 -40 0
1 35 39 0
-1 -35 -39 0
8 36 39 0
-8 -36 -39 0
15 37 39 0
-15 -37 -39 0
22 38 39 0
-22 -38 -39 0
29 39 0
-29 -39 0
36 39 40 0
-36 -39 -40 0
2 35 40 0
-2 -35 -40 0
9 36 40 0
-9 -36 -40 0
16 37 40 0
-16 -37 -40 0
23 38 40 0
-23 -38 -40 0
30 39 40 0
-30 -39 -40 0
37 40 0
-37 -40 0
