certificates/rado_a7_c283_N40.drat
-39 -40 0
-13 -40 0
d -13 -16 -40 0
-40 0
37 0
-13 0
10 0
16 0
-34 0
31 0
-7 0
4 0
-28 0
25 0
-1 0
39 0
-29 0
-14 0
-27 0
-15 0
-20 0
-6 0
-26 0
-21 0
-35 0
0
